 vasp.5.3.3 18Dez12 (build Nov 24 2013 16:08:34) complex
 executed on           CrayXC_GNU date 2014.10.24  23:55:39

 INCAR:
 POTCAR:   PAW_PBE Cs_sv 08Apr2002
 POTCAR:   PAW_PBE Pb 08Apr2002
 POTCAR:   PAW_PBE Br 06Sep2000
 POTCAR:   PAW_PBE Cs_sv 08Apr2002
   VRHFIN =Cs: 5s5p6s

   TITEL  = PAW_PBE Cs_sv 08Apr2002
   POMASS =  132.900; ZVAL   =    9.000    mass and valenz
   ENMAX  =  220.318; ENMIN  =  165.238 eV
   QCUT   =   -4.024; QGAM   =    8.048    optimization parameters

   Description
     l     E      TYP  RCUT    TYP  RCUT
     0   .000     23  1.900
     0   .000     23  1.900
     0   .000     23  1.900
     0   .000     23  1.900
     1   .000     23  2.500
     1  -.200     23  2.500
     2   .000     23  2.500

 POTCAR:   PAW_PBE Pb 08Apr2002
   VRHFIN =Pb:

   TITEL  = PAW_PBE Pb 08Apr2002
   POMASS =  207.200; ZVAL   =    4.000    mass and valenz
   ENMAX  =   97.973; ENMIN  =   73.480 eV
   QCUT   =   -2.683; QGAM   =    5.367    optimization parameters

[...]

 POTCAR:   PAW_PBE Br 06Sep2000
   VRHFIN =Br: s2p5

   TITEL  = PAW_PBE Br 06Sep2000
   POMASS =   79.904; ZVAL   =    7.000    mass and valenz
   ENMAX  =  216.264; ENMIN  =  162.198 eV
   QCUT   =   -3.987; QGAM   =    7.974    optimization parameters

   Description
     l     E      TYP  RCUT    TYP  RCUT
     0   .000     23  2.100
     0   .000     23  2.100
     1   .000     23  2.100
     1   .000     23  2.100
     2   .000     23  2.100
     3  -.100      7  2.100

 PAW_PBE Cs_sv 08Apr2002                :
 PAW_PBE Pb 08Apr2002                   :
 PAW_PBE Br 06Sep2000                   :

 POSCAR: CONTCAR
  positions in direct lattice
  velocities in cartesian coordinates
 exchange correlation table for  LEXCH =       14
   RHO(1)=    0.500       N(1)  =     2000
   RHO(2)=  100.500       N(2)  =     4000

 ion  position               nearest neighbor table
   1  0.500  0.500  0.500-
   2  0.000  0.000  0.000-   3 2.93   4 2.93   5 2.93   5 2.93   4 2.93   3 2.93
   3  0.500  0.000  0.000-   2 2.93   2 2.93
   4  0.000  0.500  0.000-   2 2.93   2 2.93
   5  0.000  0.000  0.500-   2 2.93   2 2.93

  LATTYP: Found a simple cubic cell.
 ALAT       =     5.8674931048

  Lattice vectors:

 A1 = (   5.8674931048,   0.0000000000,   0.0000000000)
 A2 = (   0.0000000000,   5.8674931048,   0.0000000000)
 A3 = (   0.0000000000,   0.0000000000,   5.8674931048)

Analysis of symmetry for initial positions (statically):
 Subroutine PRICEL returns:
 Original cell was already a primitive cell.

 Routine SETGRP: Setting up the symmetry group for a
 simple cubic supercell.

 Subroutine GETGRP returns: Found 48 space group operations
 (whereof 48 operations were pure point group operations)
 out of a pool of 48 trial point group operations.

The static configuration has the point symmetry O_h .

Analysis of symmetry for dynamics (positions and initial velocities):
 Subroutine PRICEL returns:
 Original cell was already a primitive cell.

[...]

The dynamic configuration has the point symmetry O_h .

Analysis of structural, dynamic, and magnetic symmetry:
 Subroutine PRICEL returns:
 Original cell was already a primitive cell.

 Routine SETGRP: Setting up the symmetry group for a
 simple cubic supercell.

 Subroutine GETGRP returns: Found  6 space group operations
 (whereof  6 operations were pure point group operations)
 out of a pool of 48 trial point group operations.

The (compounded) configuration has the point symmetry S_6 .

 irot  :   1
 isymop:   1   0   0
           0   1   0
           0   0   1

 gtrans:     0.0000000     0.0000000     0.0000000

 ptrans:     0.0000000     0.0000000     0.0000000
 rotmap:
 (   1->   1)  (   2->   2)  (   3->   3)  (   4->   4)  (   5->   5)

[...]

 irot  :   6
 isymop:   0  -1   0
           0   0  -1
          -1   0   0

 gtrans:     0.0000000     0.0000000     0.0000000

 ptrans:     0.0000000     0.0000000     0.0000000
 rotmap:
 (   1->   1)  (   2->   2)  (   3->   5)  (   4->   3)  (   5->   4)

 KPOINTS: k-points
  interpolating k-points between supplied coordinates
  k-points in reciprocal lattice
Space group operators:
 irot       det(A)        alpha          n_x          n_y          n_z        tau_x        tau_y        tau_z
    1     1.000000     0.000000     1.000000     0.000000     0.000000     0.000000     0.000000     0.000000
    2    -1.000000     0.000000     1.000000     0.000000     0.000000     0.000000     0.000000     0.000000
    3     1.000000   120.000000    -0.577350    -0.577350    -0.577350     0.000000     0.000000     0.000000
    4    -1.000000   120.000000    -0.577350    -0.577350    -0.577350     0.000000     0.000000     0.000000
    5     1.000000   120.000000     0.577350     0.577350     0.577350     0.000000     0.000000     0.000000
    6    -1.000000   120.000000     0.577350     0.577350     0.577350     0.000000     0.000000     0.000000

 I would recommend the setting:
   dimension x,y,z NGX =    43 NGY =   43 NGZ =   43
 SYSTEM =  Name
 POSCAR =  CONTCAR

 Startparameter for this run:
   NWRITE =      2    write-flag & timer
   PREC   = accura    normal or accurate (medium, high low for compatibility)
   ISTART =      0    job   : 0-new  1-cont  2-samecut
   ICHARG =     11    charge: 1-file 2-atom 10-const
   ISPIN  =      1    spin polarized calculation?
   LNONCOLLINEAR =      T non collinear calculations
   LSORBIT =      T    spin-orbit coupling
   INIWAV =      1    electr: 0-lowe 1-rand  2-diag
   LASPH  =      F    aspherical Exc in radial PAW
   METAGGA=      F    non-selfconsistent MetaGGA calc.

 Electronic Relaxation 1
   ENCUT  =  500.0 eV  36.75 Ry    6.06 a.u.  10.70 10.70 10.70*2*pi/ulx,y,z
   ENINI  =  500.0     initial cutoff
   ENAUG  =  503.9 eV  augmentation charge cutoff
   NELM   =    300;   NELMIN=  2; NELMDL=  0     # of ELM steps
   EDIFF  = 0.1E-05   stopping-criterion for ELM
   LREAL  =      F    real-space projection
   NLSPLINE    = F    spline interpolate recip. space projectors
   LCOMPAT=      F    compatible to vasp.4.4
   GGA_COMPAT  = T    GGA compatible to vasp.4.4-vasp.4.6
   LMAXPAW     = -100 max onsite density
   LMAXMIX     =    2 max onsite mixed and CHGCAR
   VOSKOWN=      0    Vosko Wilk Nusair interpolation
   ROPT   =    0.00000   0.00000   0.00000
 Ionic relaxation
   EDIFFG = -.5E-02   stopping-criterion for IOM
   NSW    =      0    number of steps for IOM
   NBLOCK =      1;   KBLOCK =      1    inner block; outer block
   IBRION =     -1    ionic relax: 0-MD 1-quasi-New 2-CG
   NFREE  =      0    steps in history (QN), initial steepest desc. (CG)
   ISIF   =      7    stress and relaxation
   IWAVPR =     10    prediction:  0-non 1-charg 2-wave 3-comb
   ISYM   =      2    0-nonsym 1-usesym 2-fastsym
   LCORR  =      T    Harris-Foulkes like correction to forces

   POTIM  = 0.5000    time-step for ionic-motion
   TEIN   =    0.0    initial temperature
   TEBEG  =    0.0;   TEEND  =   0.0 temperature during run
   SMASS  =  -3.00    Nose mass-parameter (am)
   estimated Nose-frequenzy (Omega)   =  0.10E-29 period in steps =****** mass=  -0.787E-27a.u.
   SCALEE = 1.0000    scale energy and forces
   NPACO  =    256;   APACO  = 16.0  distance and # of slots for P.C.
   PSTRESS=    0.0 pullay stress

  Mass of Ions in am
   POMASS = 132.90207.20 79.90
  Ionic Valenz
   ZVAL   =   9.00  4.00  7.00
  Atomic Wigner-Seitz radii
  virtual crystal weights
   VCA    =   1.00  1.00  1.00
   NELECT =      34.0000    total number of electrons
   NUPDOWN=      -1.0000    fix difference up-down

 DOS related values:
   EMIN   =  10.00;   EMAX   =-10.00  energy-range for DOS
   EFERMI =   0.00
   ISMEAR =     0;   SIGMA  =   0.05  broadening in eV -4-tet -1-fermi 0-gaus

 Electronic relaxation 2 (details)
   IALGO  =     68    algorithm
   LDIAG  =      T    sub-space diagonalisation (order eigenvalues)
   LSUBROT=      T    optimize rotation matrix (better conditioning)
   TURBO    =      0    0=normal 1=particle mesh
   IRESTART =      0    0=no restart 2=restart with 2 vectors
   NREBOOT  =      0    no. of reboots
   NMIN     =      0    reboot dimension
   EREF     =   0.00    reference energy to select bands
   IMIX   =      4    mixing-type and parameters
     AMIX     =   0.40;   BMIX     =  1.00
     AMIX_MAG =   1.60;   BMIX_MAG =  1.00
     AMIN     =   0.10
     WC   =   100.;   INIMIX=   1;  MIXPRE=   1;  MAXMIX= -45

 Intra band minimization:
   WEIMIN = 0.0000     energy-eigenvalue tresh-hold
   EBREAK =  0.69E-08  absolut break condition
   DEPER  =   0.30     relativ break condition

   TIME   =   0.40     timestep for ELM

  volume/ion in A,a.u.               =      40.40       272.64
  Fermi-wavevector in a.u.,A,eV,Ry     =   0.903889  1.708103 11.116174  0.817016
  Thomas-Fermi vector in A             =   2.027270

 Write flags
   LWAVE  =      T    write WAVECAR
   LCHARG =      T    write CHGCAR
   LVTOT  =      F    write LOCPOT, total local potential
   LVHAR  =      F    write LOCPOT, Hartree potential only
   LELF   =      F    write electronic localiz. function (ELF)
   LORBIT =     10    0 simple, 1 ext, 2 COOP (PROOUT)

 Dipole corrections
   LMONO  =      F    monopole corrections only (constant potential shift)
   LDIPOL =      F    correct potential (dipole corrections)
   IDIPOL =      0    1-x, 2-y, 3-z, 4-all directions
   EPSILON=  1.0000000 bulk dielectric constant

 Core level calculations are selected ICORELEVEL =  1
 Exchange correlation treatment:
   GGA     =    PS    GGA type
   VOSKOWN=      0    Vosko Wilk Nusair interpolation
   LHFCALC =     F    Hartree Fock is set to
   LHFONE  =     F    Hartree Fock one center treatment
   AEXX    =    0.0000 exact exchange contribution

 Linear response parameters
   LEPSILON=     F    determine dielectric tensor
   LRPA    =     F    only Hartree local field effects (RPA)
   LNABLA  =     F    use nabla operator in PAW spheres
   LVEL    =     F    velocity operator in full k-point grid
   LINTERFAST=   F  fast interpolation
   KINTER  =     0    interpolate to denser k-point grid
   CSHIFT  =0.1000    complex shift for real part using Kramers Kronig
   OMEGAMAX=  -1.0    maximum frequency
   DEG_THRESHOLD= 0.2000000E-02 threshold for treating states as degnerate
   RTIME   =    0.100 relaxation time in fs

 Orbital magnetization related:
   ORBITALMAG=     F  switch on orbital magnetization
   LCHIMAG   =     F  perturbation theory with respect to B field
   DQ        =  0.001000  dq finite difference perturbation B field

 Static calculation
 charge density and potential remain constant during run
 non collinear spin polarized calculation
 RMM-DIIS sequential band-by-band and
  variant of blocked Davidson during initial phase
 perform sub-space diagonalisation
    before iterative eigenvector-optimisation
 no mixing
 using additional bands           19
 reciprocal scheme for non local part
 use partial core corrections
 calculate Harris-corrections to forces   (improved forces if not selfconsistent)
 use gradient corrections
 WARNING: stress and forces are not correct
  (second derivative of E(xc) not defined)
 use of overlap-Matrix (Vanderbilt PP)
 Gauss-broadening in eV      SIGMA  =   0.05

[...]
   0.16666667  0.16666667  0.16666667       0.050
   0.22222222  0.22222222  0.22222222       0.050
   0.27777778  0.27777778  0.27777778       0.050
   0.33333333  0.33333333  0.33333333       0.050
   0.38888889  0.38888889  0.38888889       0.050
   0.44444444  0.44444444  0.44444444       0.050
   0.50000000  0.50000000  0.50000000       0.050
   0.50000000  0.50000000  0.50000000       0.050
   0.50000000  0.50000000  0.44444444       0.050
   0.50000000  0.50000000  0.38888889       0.050
   0.50000000  0.50000000  0.33333333       0.050
   0.50000000  0.50000000  0.27777778       0.050
   0.50000000  0.50000000  0.22222222       0.050
   0.50000000  0.50000000  0.16666667       0.050
   0.50000000  0.50000000  0.11111111       0.050
   0.50000000  0.50000000  0.05555556       0.050
   0.50000000  0.50000000  0.00000000       0.050

 position of ions in fractional coordinates (direct lattice)
   0.50000000  0.50000000  0.50000000
   0.00000000  0.00000000  0.00000000
   0.50000000  0.00000000  0.00000000
   0.00000000  0.50000000  0.00000000
   0.00000000  0.00000000  0.50000000

 position of ions in cartesian coordinates  (Angst):
   2.93374655  2.93374655  2.93374655
   0.00000000  0.00000000  0.00000000
   2.93374655  0.00000000  0.00000000
   0.00000000  2.93374655  0.00000000
   0.00000000  0.00000000  2.93374655

 Euler angles ALPHA=     0.0000000  BETA=     0.0000000

 transformation matrix from SAXIS to cartesian coordinates
     1.0000000 m_x    -0.0000000 m_y     0.0000000 m_z
     0.0000000 m_x     1.0000000 m_y     0.0000000 m_z
    -0.0000000 m_x     0.0000000 m_y     1.0000000 m_z

 transformation matrix from cartesian coordinates to SAXIS
     1.0000000 m_x     0.0000000 m_y    -0.0000000 m_z
    -0.0000000 m_x     1.0000000 m_y     0.0000000 m_z
     0.0000000 m_x     0.0000000 m_y     1.0000000 m_z

 k-point  1 :   0.0000 0.0000 0.0000  plane waves:   10274
 k-point  2 :   0.0556 0.0556 0.0556  plane waves:   10226
 k-point  3 :   0.1111 0.1111 0.1111  plane waves:   10256
 k-point  4 :   0.1667 0.1667 0.1667  plane waves:   10250
 k-point  5 :   0.2222 0.2222 0.2222  plane waves:   10284
 k-point  6 :   0.2778 0.2778 0.2778  plane waves:   10224
 k-point  7 :   0.3333 0.3333 0.3333  plane waves:   10260
 k-point  8 :   0.3889 0.3889 0.3889  plane waves:   10200
 k-point  9 :   0.4444 0.4444 0.4444  plane waves:   10194
 k-point 10 :   0.5000 0.5000 0.5000  plane waves:   10080
 k-point 11 :   0.5000 0.5000 0.5000  plane waves:   10080
 k-point 12 :   0.5000 0.5000 0.4444  plane waves:   10232
 k-point 13 :   0.5000 0.5000 0.3889  plane waves:   10232
 k-point 14 :   0.5000 0.5000 0.3333  plane waves:   10256
 k-point 15 :   0.5000 0.5000 0.2778  plane waves:   10248
 k-point 16 :   0.5000 0.5000 0.2222  plane waves:   10248
 k-point 17 :   0.5000 0.5000 0.1667  plane waves:   10232
 k-point 18 :   0.5000 0.5000 0.1111  plane waves:   10280
 k-point 19 :   0.5000 0.5000 0.0556  plane waves:   10288
 k-point 20 :   0.5000 0.5000 0.0000  plane waves:   10224

 maximum and minimum number of plane-waves per node :      1744     1664

 maximum number of plane-waves:     10288
 maximum index in each direction:
   IXMAX=   10   IYMAX=   10   IZMAX=   10
   IXMIN=  -11   IYMIN=  -11   IZMIN=  -11

 NGX is ok and might be reduce to  44
 NGY is ok and might be reduce to  44
 NGZ is ok and might be reduce to  44

 parallel 3D FFT for wavefunctions:
    minimum data exchange during FFTs selected (reduces bandwidth)
 parallel 3D FFT for charge:
    minimum data exchange during FFTs selected (reduces bandwidth)

 initial charge density was supplied:
 number of electron      34.0000006 magnetization       5.0000000      5.0000000      5.0000000
 keeping initial charge density in first step

 Maximum index for augmentation-charges         1938 (set IRDMAX)

 First call to EWALD:  gamma=   0.302
 Maximum number of real-space cells 3x 3x 3
 Maximum number of reciprocal cells 3x 3x 3

 FEWALD executed in parallel

----------------------------------------- Iteration    1(   1)  ---------------------------------------

 eigenvalue-minimisations  :  1440
 total energy-change (2. order) : 0.2547365E+03  (-0.1296762E+04)
 number of electron      34.0000006 magnetization       5.0000000      5.0000000      5.0000000
 augmentation part       34.0000006 magnetization       5.0000000      5.0000000      5.0000000

 Free energy of the ion-electron system (eV)
  alpha Z        PSCENC =        70.35344547
  Ewald energy   TEWEN  =     -1420.48342222
  -1/2 Hartree   DENC   =      -286.38042777
  -exchange  EXHF       =         0.00000000
  -V(xc)+E(xc)   XCENC  =       -83.45409236
  PAW double counting   =      1015.04304851     -857.18887269
  entropy T*S    EENTRO =        -0.00152559
  eigenvalues    EBANDS =        57.54413393
  atomic energy  EATOM  =      1759.30417769
  free energy    TOTEN  =       254.73646497 eV

  energy without entropy =      254.73799056  energy(sigma->0) =      254.73722776

[...]

 eigenvalue-minimisations  :  2112
 total energy-change (2. order) :-0.2367756E+03  (-0.2358839E+03)
 number of electron      34.0000006 magnetization       5.0000000      5.0000000      5.0000000
 augmentation part       34.0000006 magnetization       5.0000000      5.0000000      5.0000000

[...]

 total charge

# of ion     s       p       d       tot
  1        1.944   4.714   0.007   6.665
  2        1.791   0.837   0.197   2.824
  3        1.592   3.340   0.007   4.940
  4        1.592   3.340   0.007   4.940
  5        1.601   3.180   0.010   4.791
tot        8.521  15.411   0.227  24.160

 magnetization (x)

[...]

 magnetization (y)

[...]

 magnetization (z)

[...]

----------------------------------------- Iteration    1(   9)  ---------------------------------------

 eigenvalue-minimisations  :   740
 total energy-change (2. order) :-0.6231132E-06  (-0.9038675E-06)
 number of electron      34.0000006 magnetization       5.0000000      5.0000000      5.0000000
 augmentation part       34.0000006 magnetization       5.0000000      5.0000000      5.0000000

 Free energy of the ion-electron system (eV)
  alpha Z        PSCENC =        70.35344547
  Ewald energy   TEWEN  =     -1420.48342222
  -1/2 Hartree   DENC   =      -286.38042777
  -exchange  EXHF       =         0.00000000
  -V(xc)+E(xc)   XCENC  =       -83.45409236
  PAW double counting   =      1015.04304851     -857.18887269
  entropy T*S    EENTRO =        -0.00003661
  eigenvalues    EBANDS =      -206.57412593
  atomic energy  EATOM  =      1759.30417769
  free energy    TOTEN  =        -9.38030591 eV

  energy without entropy =       -9.38026930  energy(sigma->0) =       -9.38028760

 the core state eigenenergies are
   1-  1s -35784.1992  2s  -5607.5888  2p  -5028.9837  3s  -1160.9875  3p   -974.8885
       3d   -701.9900  4s   -214.1015  4p   -154.6174  4d    -68.0099
   2-  1s -88086.5689  2s -15748.0735  2p -13502.8350  3s  -3776.3683  3p  -3132.9068
       3d  -2477.9508  4s   -850.9627  4p   -640.1761  4d   -396.5677  5s   -138.8614
       4f   -127.6047  5p    -80.5756  5d    -15.5854
   3-  1s -13312.1601  2s  -1726.5105  2p  -1522.0394  3s   -231.0402  3p   -166.4518
       3d    -59.5439
   4-  1s -13312.1601  2s  -1726.5105  2p  -1522.0394  3s   -231.0402  3p   -166.4518
       3d    -59.5439
   5-  1s -13312.1601  2s  -1726.5105  2p  -1522.0394  3s   -231.0402  3p   -166.4518
       3d    -59.5439

 E-fermi :   1.1841     XC(G=0):  -7.7120     alpha+bet : -6.6704

 k-point   1 :       0.0000    0.0000    0.0000
  band No.  band energies     occupation
      1     -21.0655      1.00000
      2     -19.9808      1.00000
      3     -14.5223      1.00000
      4     -13.9475      1.00000
      5     -13.9475      1.00000
      6     -13.1806      1.00000
      7     -12.5812      1.00000
      8     -12.5812      1.00000
      9      -8.6032      1.00000
     10      -8.3196      1.00000
     11      -7.2631      1.00000
     12      -6.7793      1.00000
     13      -6.6335      1.00000
     14      -6.4996      1.00000
     15      -6.2804      1.00000
     16      -5.4918      1.00000
     17      -4.2170      1.00000
     18      -4.1287      1.00000
     19      -4.0256      1.00000
     20      -2.9217      1.00000
     21      -2.8312      1.00000
     22      -2.7629      1.00000
     23      -1.9379      1.00000
     24      -1.8899      1.00000
     25      -1.8462      1.00000
     26      -1.7777      1.00000
     27      -1.7677      1.00000
     28      -1.5735      1.00000
     29      -0.6623      1.00000
     30      -0.5806      1.00000
     31      -0.5779      1.00000
     32      -0.5045      1.00000
     33      -0.4164      1.00000
     34      -0.2883      1.00000
     35       3.5151      0.00000
     36       4.1149      0.00000

[...]

 k-point  20 :       0.5000    0.5000    0.0000
  band No.  band energies     occupation
      1     -21.0635      1.00000
      2     -19.9786      1.00000
      3     -14.1609      1.00000
      4     -14.1360      1.00000
      5     -14.1297      1.00000
      6     -12.8047      1.00000
      7     -12.7757      1.00000
      8     -12.7692      1.00000
      9      -8.6029      1.00000
     10      -8.3191      1.00000
     11      -8.0862      1.00000
     12      -7.2607      1.00000
     13      -6.9039      1.00000
     14      -6.7773      1.00000
     15      -6.4984      1.00000
     16      -6.2778      1.00000
     17      -3.8954      1.00000
     18      -2.7706      1.00000
     19      -2.6045      1.00000
     20      -2.2288      1.00000
     21      -2.1959      1.00000
     22      -2.0806      1.00000
     23      -2.0710      1.00000
     24      -1.9824      1.00000
     25      -1.5591      1.00000
     26      -1.4123      1.00000
     27      -0.9907      1.00000
     28      -0.8884      1.00000
     29      -0.8270      1.00000
     30      -0.8132      1.00000
     31      -0.6461      1.00000
     32      -0.3879      1.00000
     33      -0.0388      1.00000
     34       0.8920      1.00000
     35       1.8069      0.00000
     36       2.2886      0.00000

 soft charge-density along one line, spin component           1
         0         1         2         3         4         5         6         7         8         9
 total charge-density along one line

[...]

 soft charge-density along one line, spin component           4
         0         1         2         3         4         5         6         7         8         9
 total charge-density along one line

------------------------ aborting loop because EDIFF is reached ----------------------------------------

[...]

  FORCE on cell =-STRESS in cart. coord.  units (eV):
  Direction    XX          YY          ZZ          XY          YZ          ZX
  Alpha Z    70.35345    70.35345    70.35345
  Ewald    -473.49481  -473.49481  -473.49481     0.00000     0.00000     0.00000
  Hartree    96.99805    96.99805    96.99805     0.09586     0.09586     0.09586
  E(xc)    -129.05584  -129.05584  -129.05584     0.02040     0.02040     0.02040
  Local    -163.75961  -163.75961  -163.75961     0.26779     0.26779     0.26779
  n-local   199.93741   199.93768   200.12137    -0.13310    -0.16560    -0.18128
  augment   -46.88173   -46.88173   -46.88173     0.02823     0.02823     0.02823
  Kinetic   453.89360   453.89430   447.12076    -0.65307    -0.66411    -0.66409
  Fock        0.00000     0.00000     0.00000     0.00000     0.00000     0.00000
  Total       5.79453     5.79453     5.79453    -0.40814    -0.40814    -0.40814
  in kB      45.95909    45.95909    45.95909    -3.23712    -3.23712    -3.23712

 VOLUME and BASIS-vectors are now :
  energy-cutoff  :      500.00
  volume of cell :      202.00
      direct lattice vectors                 reciprocal lattice vectors
     5.867493105  0.000000000  0.000000000     0.170430537  0.000000000  0.000000000
     0.000000000  5.867493105  0.000000000     0.000000000  0.170430537  0.000000000
     0.000000000  0.000000000  5.867493105     0.000000000  0.000000000  0.170430537

  length of vectors
     5.867493105  5.867493105  5.867493105     0.170430537  0.170430537  0.170430537

 FORCES acting on ions
    electron-ion (+dipol)            ewald-force                    non-local-force                 convergence-correction
   -.406E-08 -.145E-08 0.258E-08   0.588E-15 0.408E-16 0.162E-14   0.000E+00 0.000E+00 0.000E+00   0.704E-13 0.506E-13 0.155E-13
   -.175E-12 -.615E-13 0.116E-12   -.862E-15 -.171E-14 -.179E-14   0.000E+00 0.000E+00 0.000E+00   -.239E-13 -.202E-13 -.354E-14
   0.180E-13 -.242E-13 0.231E-13   -.613E-15 0.937E-16 -.141E-14   0.000E+00 0.000E+00 0.000E+00   0.290E-13 -.118E-12 0.218E-13
   -.442E-13 0.222E-13 0.338E-13   0.156E-14 -.119E-15 -.143E-14   0.000E+00 0.000E+00 0.000E+00   -.136E-12 0.206E-13 0.509E-13
   -.444E-13 -.138E-13 0.285E-13   -.231E-15 0.116E-14 0.277E-14   0.000E+00 0.000E+00 0.000E+00   -.139E-12 -.139E-12 -.619E-14
   -.406E-08 -.145E-08 0.258E-08   0.441E-15 -.535E-15 -.248E-15   0.000E+00 0.000E+00 0.000E+00   -.199E-12 -.206E-12 0.785E-13

 POSITION                                       TOTAL-FORCE (eV/Angst)
      2.93375      2.93375      2.93375         0.000000      0.000000      0.000000
      0.00000      0.00000      0.00000         0.000000      0.000000      0.000000
      2.93375      0.00000      0.00000         0.000000      0.000000      0.000000
      0.00000      2.93375      0.00000         0.000000      0.000000      0.000000
      0.00000      0.00000      2.93375         0.000000      0.000000      0.000000
    total drift:                               -0.000000     -0.000000      0.000000

  FREE ENERGIE OF THE ION-ELECTRON SYSTEM (eV)
  free  energy   TOTEN  =        -9.38030591 eV

  energy  without entropy=       -9.38026930  energy(sigma->0) =       -9.38028760

 writing wavefunctions

 Spin-Orbit-Coupling matrix elements

 Ion:    1  E_soc:     -0.2875422
 l=   1
     0.0000000    -0.0479173    -0.0479173
    -0.0479173     0.0000000    -0.0479173
    -0.0479173    -0.0479173     0.0000000
 l=   2
     0.0000000     0.0000017     0.0000000     0.0000017    -0.0000081
     0.0000017     0.0000000    -0.0000061     0.0000017    -0.0000020
     0.0000000    -0.0000061     0.0000000    -0.0000061     0.0000000
     0.0000017     0.0000017    -0.0000061     0.0000000    -0.0000020
    -0.0000081    -0.0000020     0.0000000    -0.0000020     0.0000000
 l=   3
     0.0000000     0.0000000     0.0000000     0.0000000     0.0000000     0.0000000     0.0000000
     0.0000000     0.0000000     0.0000000     0.0000000     0.0000000     0.0000000     0.0000000
     0.0000000     0.0000000     0.0000000     0.0000000     0.0000000     0.0000000     0.0000000
     0.0000000     0.0000000     0.0000000     0.0000000     0.0000000     0.0000000     0.0000000
     0.0000000     0.0000000     0.0000000     0.0000000     0.0000000     0.0000000     0.0000000
     0.0000000     0.0000000     0.0000000     0.0000000     0.0000000     0.0000000     0.0000000
     0.0000000     0.0000000     0.0000000     0.0000000     0.0000000     0.0000000     0.0000000

[...]

 Ion:    5  E_soc:     -0.0618762
 l=   1
     0.0000000    -0.0113461    -0.0083106
    -0.0113461     0.0000000    -0.0113462
    -0.0083106    -0.0113462     0.0000000
 l=   2
     0.0000000    -0.0000001     0.0000000    -0.0000001    -0.0000001
    -0.0000001     0.0000000     0.0000382    -0.0000111    -0.0000001
     0.0000000     0.0000382     0.0000000     0.0000382     0.0000000
    -0.0000001    -0.0000111     0.0000382     0.0000000    -0.0000001
    -0.0000001    -0.0000001     0.0000000    -0.0000001     0.0000000
 l=   3
     0.0000000     0.0000000     0.0000000     0.0000000     0.0000000     0.0000000     0.0000000
     0.0000000     0.0000000     0.0000000     0.0000000     0.0000000     0.0000000     0.0000000
     0.0000000     0.0000000     0.0000000     0.0000000     0.0000000     0.0000000     0.0000000
     0.0000000     0.0000000     0.0000000     0.0000000     0.0000000     0.0000000     0.0000000
     0.0000000     0.0000000     0.0000000     0.0000000     0.0000000     0.0000000     0.0000000
     0.0000000     0.0000000     0.0000000     0.0000000     0.0000000     0.0000000     0.0000000
     0.0000000     0.0000000     0.0000000     0.0000000     0.0000000     0.0000000     0.0000000

 total charge

[...]

 magnetization (x)

[...]

 magnetization (y)

[...]

 magnetization (z)

# of ion     s       p       d       tot
  1        0.036   0.009  -0.000   0.045
  2        0.044   0.076  -0.003   0.117
  3        0.015   0.059   0.002   0.075
  4        0.015   0.059   0.002   0.075
  5        0.011   0.059   0.000   0.070
tot        0.121   0.261   0.000   0.382